33D32945 STP File, STP Format Version 1.0

SECTION Comment
Name    "example"
Creator "Stefan Croes"
Remark  "example for debugging"
END

SECTION Graph
Nodes 12
Edges 18
E 1 2 3
E 2 3 5
E 2 4 7
E 3 5 3
E 3 6 5
E 4 5 2
E 4 7 4
E 5 6 2
E 5 7 2
E 6 8 6
E 7 9 1
E 8 9 3
E 8 11 5
E 9 10 5
E 9 11 8
E 10 11 2
E 10 12 7
E 11 12 3

END

SECTION Terminals
Terminals 6
T 1
T 3
T 4
T 8
T 9
T 12
END

EOF
